100 0
101 105
100 139
20 56
155 60
51 137
110 89
58 205
110 116
112 141
165 146
31 52
8 95
30 4
46 26
182 21
60 143
36 147
207 33
160 163
190 209
182 95
60 130
17 128
68 154
57 189
46 68
145 45
120 120
198 23
144 187
150 155
57 2
180 63
96 118
120 104
178 150
182 80
173 51
1 51
20 77
51 40
37 190
30 20
110 100
32 65
30 176
24 98
132 127
122 137
66 179
125 165
42 85
125 27
210 200
113 155
2 203
2 77
174 32
198 40
17 37
150 36
135 27
13 173
186 10
13 20 
64 51
51 171
172 2
178 165
184 195
104 127
117 4
4 152
4 128
129 4
45 153
130 158
113 170
201 54
3 37
162 25
146 201
50 98
60 76
170 205
151 174 
160 210
207 8
78 201
76 170
190 171
195 193
60 19
67 35
7 7
18 205
2 185
201 177
190 143